nBusiness = 70;
nMeetings = 154;
nTables = 14;
nTotalSlots = 21;
nMorningSlots = 13;

requested = [|1, 2, 1,
|1, 3, 1,
|1, 4, 1,
|1, 5, 1,
|1, 6, 1,
|1, 7, 1,
|1, 8, 1,
|1, 9, 1,
|1, 10, 1,
|6, 26, 2,
|11, 12, 3,
|11, 13, 3,
|11, 14, 3,
|11, 19, 3,
|11, 20, 3,
|11, 21, 3,
|11, 22, 3,
|11, 23, 3,
|15, 2, 1,
|15, 10, 1,
|15, 16, 1,
|15, 17, 1,
|15, 18, 1,
|15, 19, 1,
|24, 18, 1,
|24, 19, 1,
|25, 3, 1,
|25, 4, 1,
|25, 5, 1,
|25, 6, 1,
|25, 7, 1,
|25, 8, 1,
|25, 24, 1,
|27, 3, 1,
|27, 5, 1,
|27, 6, 1,
|27, 8, 1,
|27, 19, 1,
|27, 28, 1,
|27, 29, 1,
|28, 31, 1,
|30, 31, 1,
|32, 31, 2,
|33, 26, 2,
|33, 31, 2,
|39, 12, 1,
|39, 18, 1,
|39, 42, 1,
|40, 7, 3,
|40, 8, 3,
|40, 10, 3,
|40, 18, 3,
|40, 29, 3,
|40, 36, 3,
|40, 37, 3,
|40, 38, 3,
|40, 39, 3,
|41, 10, 1,
|41, 32, 1,
|41, 37, 1,
|41, 38, 1,
|43, 12, 1,
|44, 35, 3,
|44, 45, 3,
|44, 46, 3,
|44, 47, 3,
|44, 48, 3,
|49, 4, 1,
|49, 9, 1,
|49, 10, 1,
|49, 13, 1,
|49, 34, 1,
|49, 46, 1,
|49, 47, 1,
|49, 50, 1,
|49, 51, 1,
|49, 52, 1,
|53, 6, 1,
|53, 7, 1,
|53, 30, 1,
|53, 32, 1,
|53, 33, 1,
|53, 35, 1,
|53, 36, 1,
|53, 38, 1,
|53, 48, 1,
|53, 54, 1,
|53, 55, 1,
|56, 2, 3,
|56, 3, 3,
|56, 10, 3,
|56, 14, 3,
|56, 16, 3,
|56, 24, 3,
|56, 28, 3,
|56, 29, 3,
|56, 42, 3,
|56, 46, 3,
|57, 26, 1,
|57, 47, 1,
|57, 58, 1,
|57, 59, 1,
|57, 60, 1,
|57, 61, 1,
|62, 4, 1,
|62, 12, 1,
|62, 13, 1,
|62, 23, 1,
|62, 24, 1,
|62, 39, 1,
|62, 42, 1,
|62, 46, 1,
|62, 54, 1,
|64, 19, 1,
|64, 29, 1,
|64, 46, 1,
|64, 50, 1,
|64, 52, 1,
|64, 63, 1,
|64, 68, 1,
|64, 69, 1,
|65, 14, 3,
|65, 24, 3,
|65, 26, 3,
|65, 33, 3,
|65, 38, 3,
|65, 45, 3,
|65, 46, 3,
|65, 52, 3,
|65, 54, 3,
|65, 60, 3,
|65, 63, 3,
|65, 64, 3,
|66, 2, 3,
|66, 3, 3,
|66, 4, 3,
|66, 9, 3,
|66, 18, 3,
|66, 24, 3,
|66, 26, 3,
|66, 29, 3,
|66, 34, 3,
|66, 39, 3,
|66, 45, 3,
|66, 50, 3,
|66, 59, 3,
|66, 63, 3,
|66, 67, 3,
|70, 6, 1,
|70, 7, 1,
|70, 8, 1,
|70, 32, 1,
|70, 34, 1,
|70, 35, 1,
|];

nMeetingsBusiness = [9, 4, 5, 5, 3, 6, 5, 5, 3, 6, 8, 4, 3, 3, 6, 2, 1, 5, 5, 1, 1, 1, 2, 7, 7, 5, 7, 3, 5, 2, 4, 4, 4, 3, 3, 2, 2, 4, 6, 9, 4, 3, 1, 5, 3, 6, 3, 2, 10, 3, 1, 3, 11, 3, 1, 10, 6, 1, 2, 2, 1, 9, 3, 9, 12, 15, 1, 1, 1, 6, ];

fixat = [0,0,0,0,0,0,0,0,0,0,0,0,0,0,0,0,0,0,0,0,0,0,0,0,0,0,0,0,0,0,0,0,0,0,0,0,0,0,0,0,0,0,0,0,0,0,0,0,0,0,0,0,0,0,0,0,0,0,0,0,0,0,0,0,0,0,0,0,0,0,0,0,0,0,0,0,0,0,0,0,0,0,0,0,0,0,0,0,0,0,0,0,0,0,0,0,0,0,0,0,0,0,0,0,0,0,0,0,0,0,0,0,0,0,0,0,0,0,0,0,0,0,0,0,0,0,0,0,0,0,0,0,0,0,0,0,0,0,0,0,0,0,0,0,0,0,0,0,0,0,0,0,0,0,];

forbidden = [{0,},
{0,},
{0,},
{0,},
{0,},
{0,},
{0,},
{0,},
{0,},
{0,},
{0,},
{0,},
{0,},
{0,},
{0,},
{0,},
{0,},
{0,},
{0,},
{0,},
{0,},
{0,},
{0,},
{0,},
{0,},
{0,},
{0,},
{0,},
{0,},
{0,},
{0,},
{0,},
{0,},
{0,},
{0,},
{0,},
{0,},
{0,},
{0,},
{0,},
{0,},
{0,},
{0,},
{0,},
{0,},
{0,},
{0,},
{0,},
{0,},
{0,},
{0,},
{0,},
{0,},
{0,},
{0,},
{0,},
{0,},
{0,},
{0,},
{0,},
{0,},
{0,},
{0,},
{0,},
{0,},
{0,},
{0,},
{0,},
{0,},
{0,},
];